unsat
(:SPACER-conj                         1
 :SPACER-inductive-gen                13
 :SPACER-inductive-gen-weaken-fail    14
 :SPACER-inductive-level              7
 :SPACER-max-depth                    10
 :SPACER-max-query-lvl                10
 :SPACER-non-local-gen                15
 :SPACER-num-active-lemmas            12
 :SPACER-num-ctp-blocked              14
 :SPACER-num-invariants               6
 :SPACER-num-is_invariant             46
 :SPACER-num-lemmas                   35
 :SPACER-num-pobs                     8
 :SPACER-num-propagations             14
 :SPACER-num-queries                  17
 :SPACER-subsume-pob                  3
 :SPACER-subsume-success              6
 :added-eqs                           1978
 :arith-assert-diseq                  176
 :arith-assert-lower                  3192
 :arith-assert-upper                  1384
 :arith-bound-prop                    208
 :arith-conflicts                     54
 :arith-eq-adapter                    342
 :arith-fixed-eqs                     444
 :arith-num-rows                      40
 :arith-offset-eqs                    164
 :arith-pivots                        262
 :arith-row-summations                1092
 :arith-tableau-max-columns           82
 :arith-tableau-max-rows              40
 :conflicts                           348
 :decisions                           1542
 :del-clause                          554
 :final-checks                        76
 :iuc_solver.num_proxies              39
 :max-memory                          31.69
 :memory                              31.25
 :minimized-lits                      18
 :mk-bool-var                         2032
 :mk-clause                           1286
 :num-allocs                          16713734
 :num-checks                          296
 :pool_solver.checks                  148
 :pool_solver.checks.sat              38
 :propagations                        9756
 :rlimit-count                        76534
 :time                                0.10
 :time.iuc_solver.get_iuc             0.02
 :time.iuc_solver.get_iuc.hyp_reduce1 0.00
 :time.iuc_solver.get_iuc.hyp_reduce2 0.01
 :time.iuc_solver.get_iuc.learn_core  0.00
 :time.pool_solver.proof              0.00
 :time.pool_solver.smt.total          0.03
 :time.pool_solver.smt.total.sat      0.01
 :time.spacer.init_rules              0.00
 :time.spacer.mbp                     0.00
 :time.spacer.solve                   0.09
 :time.spacer.solve.propagate         0.01
 :time.spacer.solve.reach             0.07
 :time.spacer.solve.reach.children    0.00
 :time.spacer.solve.reach.cluster     0.01
 :time.spacer.solve.reach.gen.global  0.01
 :time.spacer.solve.reach.gen.ind     0.00)
(:max-memory   31.69
 :memory       31.25
 :num-allocs   16713734
 :rlimit-count 76534
 :time         0.10
 :total-time   0.12)
